Solving original (integer) problem with strategy gdp.hull_exact_conic_no_cholesky...
--- Job model.gms Start 02/16/26 07:43:58 52.2.0 d8e408be LEX-LEG x86 64bit/Linux
--- Applying:
    /package/gams/52.2/gmsprmun.txt
--- GAMS Parameters defined
    Input /local/scratch/a/sgusev/repos/k_means/data/gams_scip_gdp.hull_exact_conic_no_cholesky/no_mode/2026-02-16_07-43-57/original/model.gms
    Output /local/scratch/a/sgusev/repos/k_means/data/gams_scip_gdp.hull_exact_conic_no_cholesky/no_mode/2026-02-16_07-43-57/original/output.lst
    ScrDir /local/scratch/a/sgusev/repos/k_means/data/gams_scip_gdp.hull_exact_conic_no_cholesky/no_mode/2026-02-16_07-43-57/original/225a/
    SysDir /package/gams/52.2/
    CurDir /local/scratch/a/sgusev/repos/k_means/data/gams_scip_gdp.hull_exact_conic_no_cholesky/no_mode/2026-02-16_07-43-57/original/
    LogOption 3
    AppendLog 1
Licensee: David Bernal / SECQUOIA Research Group         G251008+0003Ac-GEN
          Purdue University, Davidson School of Chemical EngineeringDCE4838
          225a/gamslice.dat
          5a82958a-fbca-4a23
          node:66820903 mem:995 cores:48 ipport:48689 v:2                  
          Evaluation license: Not for commercial or production use
          The time-limited license stops working on : Jun 30, 2027
System information: 48 physical cores and 995 Gb physical memory detected
GAMS 52.2.0   Copyright (C) 1987-2025 GAMS Development. All rights reserved
--- Starting compilation
--- model.gms(3643) 2 Mb
--- $echo File /local/scratch/a/sgusev/repos/k_means/data/gams_scip_gdp.hull_exact_conic_no_cholesky/no_mode/2026-02-16_07-43-57/original/scip.opt
--- model.gms(5392) 2 Mb
--- Starting execution: elapsed 0:00:00.019
--- model.gms(3653) 3 Mb
--- Generating MINLP model GAMS_MODEL
--- model.gms(3657) 6 Mb
---   1,114 rows  568 columns  2,917 non-zeroes
---   780 nl-code  300 nl-non-zeroes
---   60 discrete-columns
--- Range statistics (absolute non-zero finite values)
--- RHS       [min, max] : [ 1.000E+00, 1.000E+00] - Zero values observed as well
--- Bound     [min, max] : [ 1.000E+00, 9.000E+01] - Zero values observed as well
--- Matrix    [min, max] : [ 4.207E-02, 9.000E+01] - Zero values observed as well
--- model.gms(3657) 4 Mb
--- Executing SCIP (Solvelink=5): elapsed 0:00:00.025

SCIP             52.2.0 d8e408be Dec 8, 2025           LEG x86 64bit/Linux    
SCIP version 9.2.4 (a94f778ac8)
Copyright (c) 2002-2025 Zuse Institute Berlin (ZIB)

External libraries: 
  CPLEX 22.1.2.0       Linear Programming Solver developed by IBM (www.cplex.com)
  CppAD 20180000.0     Algorithmic Differentiation of C++ algorithms developed by B. Bell (github.com/coin-or/CppAD)
  PaPILO 2.4.4         parallel presolve for integer and linear optimization (github.com/scipopt/papilo) (built with TBB) [GitHash: 7c826d50]
  Nauty 2.8.9          Computing Graph Automorphism Groups by Brendan D. McKay (users.cecs.anu.edu.au/~bdm/nauty)
  sassy 1.1            Symmetry preprocessor by Markus Anders (github.com/markusa4/sassy)
  Ipopt 3.14.19        Interior Point Optimizer developed by A. Waechter et.al. (github.com/coin-or/Ipopt)

reading option file /local/scratch/a/sgusev/repos/k_means/data/gams_scip_gdp.hull_exact_conic_no_cholesky/no_mode/2026-02-16_07-43-57/original/scip.opt
non-default parameter settings:
limits/time = 300
limits/gap = 1e-06
limits/absgap = 1e-10
lp/threads = 1
misc/printreason = FALSE
numerics/dualfeastol = 1e-06
parallel/maxnthreads = 1
nlpi/ipopt/linear_solver = "ma27"
nlpi/ipopt/linear_system_scaling = "mc19"

original problem has 567 variables (60 bin, 0 int, 507 cont) and 1113 constraints

all 1 solutions given by solution candidate storage are infeasible

presolving:
(round 1, fast)       15 del vars, 0 del conss, 0 add conss, 60 chg bounds, 0 chg sides, 0 chg coeffs, 0 upgd conss, 0 impls, 15 clqs
(round 2, fast)       15 del vars, 0 del conss, 0 add conss, 60 chg bounds, 15 chg sides, 0 chg coeffs, 0 upgd conss, 0 impls, 15 clqs
(round 3, exhaustive) 15 del vars, 0 del conss, 0 add conss, 60 chg bounds, 15 chg sides, 0 chg coeffs, 795 upgd conss, 0 impls, 15 clqs
   (0.0s) probing cycle finished: starting next cycle
   (0.0s) symmetry computation started: requiring (bin +, int +, cont +), (fixed: bin -, int -, cont -)
   (0.0s) no symmetry present (symcode time: 0.00)
presolving (4 rounds: 4 fast, 2 medium, 2 exhaustive):
 15 deleted vars, 0 deleted constraints, 0 added constraints, 60 tightened bounds, 0 added holes, 15 changed sides, 0 changed coefficients
 2280 implications, 15 cliques
presolved problem has 552 variables (60 bin, 0 int, 0 impl, 492 cont) and 1113 constraints
    780 constraints of type <varbound>
     15 constraints of type <setppc>
    258 constraints of type <linear>
     60 constraints of type <nonlinear>
Presolving Time: 0.02

 time | node  | left  |LP iter|LP it/n|mem/heur|mdpt |vars |cons |rows |cuts |sepa|confs|strbr|  dualbound   | primalbound  |  gap   | compl. 
  0.1s|     1 |     0 |   805 |     - |    11M |   0 | 852 |1113 |1773 |   0 |  0 |   0 |   0 | 0.000000e+00 |      --      |    Inf | unknown
o 0.1s|     1 |     0 |   940 |     - |feaspump|   0 | 852 |1113 |1773 |   0 |  0 |   0 |   0 | 0.000000e+00 | 1.165821e+01 |    Inf | unknown
  0.1s|     1 |     0 |  1159 |     - |    12M |   0 | 852 |1113 |1940 | 167 |  1 |   0 |   0 | 0.000000e+00 | 1.165821e+01 |    Inf | unknown
  0.2s|     1 |     0 |  1159 |     - |    12M |   0 | 852 |1113 |1925 | 167 |  1 |   0 |   0 | 0.000000e+00 | 1.165821e+01 |    Inf | unknown
  0.2s|     1 |     0 |  1349 |     - |    12M |   0 | 852 |1113 |2082 | 324 |  2 |   0 |   0 | 0.000000e+00 | 1.165821e+01 |    Inf | unknown
  0.2s|     1 |     0 |  1574 |     - |    12M |   0 | 852 |1113 |2241 | 483 |  3 |   0 |   0 | 0.000000e+00 | 1.165821e+01 |    Inf | unknown
  0.2s|     1 |     0 |  1763 |     - |    13M |   0 | 852 |1113 |2385 | 627 |  4 |   0 |   0 | 0.000000e+00 | 1.165821e+01 |    Inf | unknown
  0.3s|     1 |     0 |  1964 |     - |    14M |   0 | 852 |1113 |2531 | 773 |  5 |   0 |   0 | 0.000000e+00 | 1.165821e+01 |    Inf | unknown
  0.3s|     1 |     0 |  2208 |     - |    14M |   0 | 852 |1113 |2673 | 915 |  6 |   0 |   0 | 0.000000e+00 | 1.165821e+01 |    Inf | unknown
  0.3s|     1 |     0 |  2444 |     - |    16M |   0 | 852 |1113 |2815 |1057 |  7 |   0 |   0 | 0.000000e+00 | 1.165821e+01 |    Inf | unknown
  0.4s|     1 |     0 |  2736 |     - |    16M |   0 | 852 |1113 |2937 |1179 |  8 |   0 |   0 | 0.000000e+00 | 1.165821e+01 |    Inf | unknown
  0.4s|     1 |     0 |  2975 |     - |    16M |   0 | 852 |1113 |3045 |1287 |  9 |   0 |   0 | 0.000000e+00 | 1.165821e+01 |    Inf | unknown
  0.4s|     1 |     0 |  3271 |     - |    17M |   0 | 852 |1113 |3160 |1402 | 10 |   0 |   0 | 0.000000e+00 | 1.165821e+01 |    Inf | unknown
  0.5s|     1 |     0 |  3598 |     - |    17M |   0 | 852 |1113 |3262 |1504 | 11 |   0 |   0 | 0.000000e+00 | 1.165821e+01 |    Inf | unknown
  0.5s|     1 |     0 |  3598 |     - |    17M |   0 | 852 |1098 |3262 |1504 | 11 |   0 |   0 | 0.000000e+00 | 1.165821e+01 |    Inf | unknown
 time | node  | left  |LP iter|LP it/n|mem/heur|mdpt |vars |cons |rows |cuts |sepa|confs|strbr|  dualbound   | primalbound  |  gap   | compl. 
  0.5s|     1 |     0 |  3946 |     - |    18M |   0 | 852 |1098 |2439 |1611 | 12 |   0 |   0 | 0.000000e+00 | 1.165821e+01 |    Inf | unknown
  0.6s|     1 |     0 |  4150 |     - |    18M |   0 | 852 |1098 |2536 |1708 | 13 |   0 |   0 | 0.000000e+00 | 1.165821e+01 |    Inf | unknown
  0.6s|     1 |     0 |  4456 |     - |    18M |   0 | 852 |1098 |2617 |1789 | 14 |   0 |   0 | 0.000000e+00 | 1.165821e+01 |    Inf | unknown
  0.6s|     1 |     0 |  4736 |     - |    18M |   0 | 852 |1098 |2695 |1867 | 15 |   0 |   0 | 0.000000e+00 | 1.165821e+01 |    Inf | unknown
  0.7s|     1 |     0 |  4970 |     - |    19M |   0 | 852 |1098 |2758 |1930 | 16 |   0 |   0 | 0.000000e+00 | 1.165821e+01 |    Inf | unknown
  0.7s|     1 |     0 |  5176 |     - |    19M |   0 | 852 |1098 |2805 |1977 | 17 |   0 |   0 | 0.000000e+00 | 1.165821e+01 |    Inf | unknown
  0.7s|     1 |     0 |  5443 |     - |    19M |   0 | 852 |1098 |2053 |2010 | 18 |   0 |   0 | 0.000000e+00 | 1.165821e+01 |    Inf | unknown
  0.8s|     1 |     0 |  5555 |     - |    19M |   0 | 852 |1098 |2085 |2042 | 19 |   0 |   0 | 0.000000e+00 | 1.165821e+01 |    Inf | unknown
  0.8s|     1 |     0 |  5821 |     - |    20M |   0 | 852 |1098 |2115 |2072 | 20 |   0 |   0 | 0.000000e+00 | 1.165821e+01 |    Inf | unknown
  0.8s|     1 |     0 |  6059 |     - |    20M |   0 | 852 |1098 |2146 |2103 | 21 |   0 |   0 | 0.000000e+00 | 1.165821e+01 |    Inf | unknown
  0.9s|     1 |     0 |  6474 |     - |    20M |   0 | 852 |1098 |2175 |2132 | 22 |   0 |   0 | 0.000000e+00 | 1.165821e+01 |    Inf | unknown
L 0.9s|     1 |     0 |  6718 |     - |    alns|   0 | 852 |1098 |2175 |2132 | 22 |   0 |   0 | 0.000000e+00 | 1.147104e+01 |    Inf | unknown
d 1.1s|     1 |     0 |  6718 |     - |    mpec|   0 | 852 |1098 |2175 |2132 | 22 |   0 |   0 | 0.000000e+00 | 8.374207e+00 |    Inf | unknown
  1.1s|     1 |     0 |  6718 |     - |    20M |   0 | 852 |1098 |2175 |2132 | 22 |   0 |   0 | 0.000000e+00 | 8.374207e+00 |    Inf | unknown
  1.1s|     1 |     0 |  7145 |     - |    20M |   0 | 852 |1098 |1744 |2163 | 23 |   0 |   0 | 0.000000e+00 | 8.374207e+00 |    Inf | unknown
 time | node  | left  |LP iter|LP it/n|mem/heur|mdpt |vars |cons |rows |cuts |sepa|confs|strbr|  dualbound   | primalbound  |  gap   | compl. 
  1.2s|     1 |     0 |  7165 |     - |    20M |   0 | 852 |1098 |1747 |2166 | 24 |   0 |   0 | 0.000000e+00 | 8.374207e+00 |    Inf | unknown
  1.2s|     1 |     0 |  7165 |     - |    20M |   0 | 852 |1098 |1747 |2166 | 24 |   0 |   3 | 0.000000e+00 | 8.374207e+00 |    Inf | unknown
  1.2s|     1 |     0 |  7355 |     - |    20M |   0 | 852 |1098 |1778 |2197 | 25 |   0 |   3 | 0.000000e+00 | 8.374207e+00 |    Inf | unknown
  1.2s|     1 |     0 |  7434 |     - |    20M |   0 | 852 |1098 |1783 |2202 | 26 |   0 |   3 | 0.000000e+00 | 8.374207e+00 |    Inf | unknown
  1.3s|     1 |     0 |  7434 |     - |    20M |   0 | 852 |1098 |1783 |2202 | 26 |   0 |   6 | 0.000000e+00 | 8.374207e+00 |    Inf | unknown
  1.4s|     1 |     0 |  8094 |     - |    20M |   0 | 852 |1098 |1844 |2263 | 27 |   0 |   6 | 0.000000e+00 | 8.374207e+00 |    Inf | unknown
  1.4s|     1 |     0 |  8171 |     - |    20M |   0 | 852 |1098 |1848 |2267 | 28 |   0 |   6 | 0.000000e+00 | 8.374207e+00 |    Inf | unknown
  1.5s|     1 |     0 |  8171 |     - |    20M |   0 | 852 |1098 |1848 |2267 | 28 |   0 |   9 | 0.000000e+00 | 8.374207e+00 |    Inf | unknown
  1.5s|     1 |     0 |  8486 |     - |    20M |   0 | 852 |1098 |1621 |2336 | 29 |   0 |   9 | 0.000000e+00 | 8.374207e+00 |    Inf | unknown
  1.5s|     1 |     0 |  8541 |     - |    20M |   0 | 852 |1098 |1626 |2341 | 30 |   0 |   9 | 0.000000e+00 | 8.374207e+00 |    Inf | unknown
  1.5s|     1 |     0 |  8541 |     - |    20M |   0 | 852 |1098 |1626 |2341 | 30 |   0 |  12 | 0.000000e+00 | 8.374207e+00 |    Inf | unknown
  1.6s|     1 |     0 |  8860 |     - |    20M |   0 | 852 |1098 |1706 |2421 | 31 |   0 |  12 | 0.000000e+00 | 8.374207e+00 |    Inf | unknown
  1.6s|     1 |     0 |  8942 |     - |    20M |   0 | 852 |1098 |1711 |2426 | 32 |   0 |  12 | 0.000000e+00 | 8.374207e+00 |    Inf | unknown
  1.7s|     1 |     0 |  8942 |     - |    20M |   0 | 852 |1098 |1711 |2426 | 32 |   0 |  16 | 0.000000e+00 | 8.374207e+00 |    Inf | unknown
  1.7s|     1 |     0 |  9940 |     - |    20M |   0 | 852 |1098 |1839 |2554 | 33 |   0 |  16 | 0.000000e+00 | 8.374207e+00 |    Inf | unknown
 time | node  | left  |LP iter|LP it/n|mem/heur|mdpt |vars |cons |rows |cuts |sepa|confs|strbr|  dualbound   | primalbound  |  gap   | compl. 
  1.7s|     1 |     0 | 10008 |     - |    20M |   0 | 852 |1098 |1847 |2562 | 34 |   0 |  16 | 0.000000e+00 | 8.374207e+00 |    Inf | unknown
  1.8s|     1 |     0 | 10008 |     - |    20M |   0 | 852 |1098 |1847 |2562 | 34 |   0 |  20 | 0.000000e+00 | 8.374207e+00 |    Inf | unknown
  1.9s|     1 |     0 | 10556 |     - |    20M |   0 | 852 |1098 |1782 |2705 | 35 |   0 |  20 | 0.000000e+00 | 8.374207e+00 |    Inf | unknown
  1.9s|     1 |     0 | 10785 |     - |    20M |   0 | 852 |1098 |1790 |2713 | 36 |   0 |  20 | 0.000000e+00 | 8.374207e+00 |    Inf | unknown
  2.0s|     1 |     0 | 10785 |     - |    20M |   0 | 852 |1098 |1790 |2713 | 36 |   0 |  24 | 0.000000e+00 | 8.374207e+00 |    Inf | unknown
  2.1s|     1 |     0 | 11295 |     - |    20M |   0 | 852 |1098 |1952 |2875 | 37 |   0 |  24 | 0.000000e+00 | 8.374207e+00 |    Inf | unknown
  2.1s|     1 |     0 | 11449 |     - |    20M |   0 | 852 |1098 |1962 |2885 | 38 |   0 |  24 | 0.000000e+00 | 8.374207e+00 |    Inf | unknown
  2.2s|     1 |     0 | 11449 |     - |    20M |   0 | 852 |1098 |1962 |2885 | 38 |   0 |  28 | 0.000000e+00 | 8.374207e+00 |    Inf | unknown
  2.2s|     1 |     0 | 11827 |     - |    20M |   0 | 852 |1098 |2117 |3040 | 39 |   0 |  28 | 0.000000e+00 | 8.374207e+00 |    Inf | unknown
  2.2s|     1 |     0 | 11947 |     - |    20M |   0 | 852 |1098 |2125 |3048 | 40 |   0 |  28 | 0.000000e+00 | 8.374207e+00 |    Inf | unknown
  2.4s|     1 |     0 | 11947 |     - |    20M |   0 | 852 |1098 |2125 |3048 | 40 |   0 |  31 | 0.000000e+00 | 8.374207e+00 |    Inf | unknown
  2.4s|     1 |     0 | 12290 |     - |    20M |   0 | 852 |1098 |2014 |3181 | 41 |   0 |  31 | 0.000000e+00 | 8.374207e+00 |    Inf | unknown
  2.4s|     1 |     0 | 12307 |     - |    20M |   0 | 852 |1098 |2016 |3183 | 42 |   0 |  31 | 0.000000e+00 | 8.374207e+00 |    Inf | unknown
  2.5s|     1 |     0 | 12307 |     - |    21M |   0 | 852 |1098 |2016 |3183 | 42 |   0 |  34 | 0.000000e+00 | 8.374207e+00 |    Inf | unknown
  2.6s|     1 |     0 | 13342 |     - |    21M |   0 | 852 |1098 |2134 |3301 | 43 |   0 |  34 | 0.000000e+00 | 8.374207e+00 |    Inf | unknown
 time | node  | left  |LP iter|LP it/n|mem/heur|mdpt |vars |cons |rows |cuts |sepa|confs|strbr|  dualbound   | primalbound  |  gap   | compl. 
  2.6s|     1 |     0 | 13515 |     - |    21M |   0 | 852 |1098 |2141 |3308 | 44 |   0 |  34 | 0.000000e+00 | 8.374207e+00 |    Inf | unknown
  2.8s|     1 |     0 | 13515 |     - |    21M |   0 | 852 |1098 |2141 |3308 | 44 |   0 |  38 | 0.000000e+00 | 8.374207e+00 |    Inf | unknown
  2.9s|     1 |     0 | 14595 |     - |    21M |   0 | 852 |1098 |2283 |3450 | 45 |   0 |  38 | 0.000000e+00 | 8.374207e+00 |    Inf | unknown
  2.9s|     1 |     0 | 14687 |     - |    21M |   0 | 852 |1098 |2286 |3453 | 46 |   0 |  38 | 0.000000e+00 | 8.374207e+00 |    Inf | unknown
  3.0s|     1 |     0 | 14687 |     - |    21M |   0 | 852 |1098 |2286 |3453 | 46 |   0 |  41 | 0.000000e+00 | 8.374207e+00 |    Inf | unknown
  3.1s|     1 |     0 | 15030 |     - |    21M |   0 | 852 |1098 |1943 |3571 | 47 |   0 |  41 | 0.000000e+00 | 8.374207e+00 |    Inf | unknown
  3.1s|     1 |     0 | 15166 |     - |    21M |   0 | 852 |1098 |1949 |3577 | 48 |   0 |  41 | 0.000000e+00 | 8.374207e+00 |    Inf | unknown
  3.2s|     1 |     0 | 15166 |     - |    21M |   0 | 852 |1098 |1949 |3577 | 48 |   0 |  47 | 0.000000e+00 | 8.374207e+00 |    Inf | unknown
  3.3s|     1 |     0 | 15412 |     - |    21M |   0 | 852 |1098 |2048 |3676 | 49 |   0 |  47 | 0.000000e+00 | 8.374207e+00 |    Inf | unknown
  3.3s|     1 |     0 | 15491 |     - |    21M |   0 | 852 |1098 |2051 |3679 | 50 |   0 |  47 | 0.000000e+00 | 8.374207e+00 |    Inf | unknown
  3.4s|     1 |     0 | 15491 |     - |    21M |   0 | 852 |1098 |2051 |3679 | 50 |   0 |  50 | 0.000000e+00 | 8.374207e+00 |    Inf | unknown
  3.4s|     1 |     0 | 15806 |     - |    21M |   0 | 852 |1098 |2154 |3782 | 51 |   0 |  50 | 0.000000e+00 | 8.374207e+00 |    Inf | unknown
  3.4s|     1 |     0 | 15907 |     - |    21M |   0 | 852 |1098 |2160 |3788 | 52 |   0 |  50 | 0.000000e+00 | 8.374207e+00 |    Inf | unknown
  3.6s|     1 |     0 | 15907 |     - |    21M |   0 | 852 |1098 |2160 |3788 | 52 |   0 |  54 | 0.000000e+00 | 8.374207e+00 |    Inf | unknown
  3.7s|     1 |     0 | 16994 |     - |    21M |   0 | 852 |1098 |1847 |3869 | 53 |   0 |  54 | 0.000000e+00 | 8.374207e+00 |    Inf | unknown
 time | node  | left  |LP iter|LP it/n|mem/heur|mdpt |vars |cons |rows |cuts |sepa|confs|strbr|  dualbound   | primalbound  |  gap   | compl. 
  3.7s|     1 |     0 | 17117 |     - |    21M |   0 | 852 |1098 |1852 |3874 | 54 |   0 |  54 | 0.000000e+00 | 8.374207e+00 |    Inf | unknown
  3.7s|     1 |     0 | 17117 |     - |    21M |   0 | 852 |1098 |1852 |3874 | 54 |   0 |  57 | 0.000000e+00 | 8.374207e+00 |    Inf | unknown
  3.7s|     1 |     0 | 17466 |     - |    21M |   0 | 852 |1098 |1982 |4004 | 55 |   0 |  57 | 0.000000e+00 | 8.374207e+00 |    Inf | unknown
  3.8s|     1 |     0 | 17609 |     - |    21M |   0 | 852 |1098 |1988 |4010 | 56 |   0 |  57 | 0.000000e+00 | 8.374207e+00 |    Inf | unknown
  3.8s|     1 |     2 | 17609 |     - |    21M |   0 | 852 |1098 |1988 |4010 | 56 |   0 |  57 | 0.000000e+00 | 8.374207e+00 |    Inf | unknown
d 5.6s|    27 |    26 | 30942 | 529.9 |pscostdi|  13 | 852 |1100 |2379 |8792 |  4 |   2 | 147 | 0.000000e+00 | 8.283736e+00 |    Inf | unknown
d 6.5s|    40 |    28 | 40540 | 599.4 |fracdivi|  13 | 852 |1100 |2351 |  11k|  8 |   2 | 169 | 0.000000e+00 | 5.265168e+00 |    Inf | unknown
o 8.9s|    69 |    52 | 58830 | 612.7 |objpscos|  14 | 852 |1104 |2351 |  16k|  5 |   6 | 222 | 0.000000e+00 | 4.479360e+00 |    Inf |   0.47%
 10.8s|   100 |    83 | 79104 | 625.7 |    36M |  17 | 852 |1106 |2135 |  21k|  6 |   9 | 228 | 0.000000e+00 | 4.479360e+00 |    Inf |   0.83%
d11.4s|   109 |    87 | 84310 | 621.7 |nlpdivin|  19 | 852 |1107 |2542 |   0 |  7 |  30 | 230 | 0.000000e+00 | 3.675812e+00 |    Inf |   2.30%
 17.2s|   200 |   170 |153692 | 686.1 |    56M |  21 | 852 |1149 |2090 |  37k|  8 | 134 | 244 | 0.000000e+00 | 3.675812e+00 |    Inf |   8.61%
L17.8s|   209 |   164 |162463 | 698.6 |    gins|  21 | 852 |1152 |2452 |  39k|  7 | 138 | 244 | 0.000000e+00 | 3.262539e+00 |    Inf |  10.30%
 22.0s|   300 |   229 |212701 | 654.0 |    70M |  23 | 852 |1174 |2639 |  51k|  6 | 174 | 244 | 0.000000e+00 | 3.262539e+00 |    Inf |  12.11%
L22.4s|   309 |   173 |218007 | 652.1 |    gins|  23 | 852 |1173 |2299 |  52k|  0 | 177 | 244 | 0.000000e+00 | 2.436858e+00 |    Inf |  18.05%
 26.2s|   400 |   214 |256650 | 600.2 |    78M |  24 | 852 |1173 |2442 |  61k|  1 | 203 | 245 | 0.000000e+00 | 2.436858e+00 |    Inf |  23.82%
 time | node  | left  |LP iter|LP it/n|mem/heur|mdpt |vars |cons |rows |cuts |sepa|confs|strbr|  dualbound   | primalbound  |  gap   | compl. 
 30.2s|   500 |   278 |299284 | 565.4 |    85M |  33 | 852 |1174 |2897 |  73k|  0 | 241 | 245 | 0.000000e+00 | 2.436858e+00 |    Inf |  23.95%
*31.2s|   536 |   255 |305744 | 539.4 |    LP  |  34 | 852 |1174 |3100 |  75k| 13 | 243 | 245 | 0.000000e+00 | 2.277751e+00 |    Inf |  26.76%
 33.3s|   600 |   275 |329641 | 521.7 |    89M |  34 | 852 |1174 |2701 |  81k|  7 | 261 | 246 | 0.000000e+00 | 2.277751e+00 |    Inf |  28.05%
 36.1s|   700 |   301 |358597 | 488.5 |    92M |  34 | 852 |1174 |2782 |  89k|  5 | 276 | 247 | 0.000000e+00 | 2.277751e+00 |    Inf |  28.85%
 40.2s|   800 |   345 |399025 | 477.9 |   100M |  34 | 852 |1175 |2482 | 100k|  5 | 299 | 247 | 0.000000e+00 | 2.277751e+00 |    Inf |  29.31%
 43.5s|   900 |   367 |430510 | 459.8 |   105M |  34 | 852 |1175 |2169 | 108k|  0 | 319 | 247 | 0.000000e+00 | 2.277751e+00 |    Inf |  29.91%
 46.5s|  1000 |   409 |462123 | 445.4 |   109M |  34 | 852 |1175 |2513 | 118k|  6 | 330 | 248 | 0.000000e+00 | 2.277751e+00 |    Inf |  30.44%
 49.7s|  1100 |   451 |496190 | 435.9 |   114M |  34 | 852 |1175 |2528 | 127k|  6 | 343 | 248 | 0.000000e+00 | 2.277751e+00 |    Inf |  30.80%
 53.3s|  1200 |   491 |533944 | 431.0 |   123M |  34 | 852 |1175 |2295 | 136k|  0 | 369 | 249 | 0.000000e+00 | 2.277751e+00 |    Inf |  31.87%
 57.0s|  1300 |   523 |570787 | 426.2 |   127M |  34 | 852 |1176 |2274 | 145k|  5 | 390 | 256 | 3.314943e-02 | 2.277751e+00 |6771.16%|  32.70%
 60.8s|  1400 |   549 |611717 | 425.0 |   135M |  34 | 852 |1177 |2610 | 155k|  7 | 404 | 261 | 4.003103e-02 | 2.277751e+00 |5589.96%|  35.18%
 65.6s|  1500 |   587 |653983 | 424.8 |   145M |  34 | 852 |1177 |2509 | 164k|  7 | 422 | 266 | 8.884119e-02 | 2.277751e+00 |2463.85%|  35.64%
 68.6s|  1600 |   611 |682411 | 416.0 |   150M |  34 | 852 |1177 |2410 | 172k|  2 | 439 | 271 | 1.262050e-01 | 2.277751e+00 |1704.80%|  36.58%
 71.7s|  1700 |   635 |713727 | 410.0 |   152M |  34 | 852 |1177 |2674 | 182k|  7 | 465 | 278 | 1.327648e-01 | 2.277751e+00 |1615.63%|  37.01%
 74.1s|  1800 |   639 |735600 | 399.4 |   155M |  34 | 852 |1177 |2737 | 188k|  5 | 496 | 290 | 1.949572e-01 | 2.277751e+00 |1068.33%|  38.98%
 time | node  | left  |LP iter|LP it/n|mem/heur|mdpt |vars |cons |rows |cuts |sepa|confs|strbr|  dualbound   | primalbound  |  gap   | compl. 
 76.5s|  1900 |   653 |759156 | 390.7 |   157M |  34 | 852 |1177 |2276 | 196k|  1 | 522 | 298 | 2.033252e-01 | 2.277751e+00 |1020.25%|  39.54%
 79.8s|  2000 |   677 |788646 | 385.9 |   161M |  34 | 852 |1177 |2705 | 203k|  7 | 546 | 302 | 2.033252e-01 | 2.277751e+00 |1020.25%|  39.85%
 82.4s|  2100 |   699 |814118 | 379.7 |   164M |  34 | 852 |1177 |2802 | 210k|  1 | 571 | 308 | 2.076481e-01 | 2.277751e+00 | 996.93%|  40.29%
 85.3s|  2200 |   709 |844703 | 376.3 |   167M |  34 | 852 |1177 |2561 | 218k|  0 | 603 | 319 | 2.417646e-01 | 2.277751e+00 | 842.14%|  41.57%
 88.4s|  2300 |   739 |875555 | 373.4 |   176M |  34 | 852 |1178 |2621 | 226k|  6 | 627 | 324 | 3.250830e-01 | 2.277751e+00 | 600.67%|  42.67%
 91.6s|  2400 |   759 |907009 | 370.9 |   179M |  34 | 852 |1178 |2937 | 234k|  7 | 651 | 336 | 3.484886e-01 | 2.277751e+00 | 553.61%|  43.06%
 95.1s|  2500 |   775 |938030 | 368.5 |   182M |  34 | 852 |1178 |2547 | 242k|  5 | 673 | 339 | 3.710836e-01 | 2.277751e+00 | 513.81%|  44.35%
 98.0s|  2600 |   797 |965539 | 364.9 |   189M |  34 | 852 |1178 |2543 | 250k|  6 | 695 | 346 | 4.018675e-01 | 2.277751e+00 | 466.79%|  44.96%
  101s|  2700 |   817 |987756 | 359.6 |   192M |  34 | 852 |1178 |2776 | 256k|  1 | 715 | 354 | 4.018675e-01 | 2.277751e+00 | 466.79%|  45.16%
  103s|  2800 |   839 |  1014k| 356.4 |   194M |  34 | 852 |1178 |2599 | 263k|  0 | 735 | 356 | 4.349915e-01 | 2.277751e+00 | 423.63%|  46.00%
  105s|  2900 |   851 |  1029k| 349.1 |   195M |  34 | 852 |1179 |2673 | 268k|  4 | 745 | 358 | 4.380167e-01 | 2.277751e+00 | 420.01%|  46.96%
  108s|  3000 |   857 |  1056k| 346.6 |   198M |  34 | 852 |1179 |2639 | 276k|  7 | 764 | 366 | 4.571336e-01 | 2.277751e+00 | 398.27%|  47.83%
  110s|  3100 |   871 |  1077k| 342.2 |   199M |  34 | 852 |1179 |2665 | 282k|  0 | 786 | 376 | 4.571336e-01 | 2.277751e+00 | 398.27%|  47.97%
  112s|  3200 |   883 |  1099k| 338.2 |   201M |  34 | 852 |1180 |2703 | 288k|  0 | 803 | 382 | 4.855953e-01 | 2.277751e+00 | 369.06%|  49.71%
  114s|  3300 |   895 |  1118k| 333.9 |   202M |  34 | 852 |1180 |2528 | 294k|  4 | 819 | 387 | 5.000382e-01 | 2.277751e+00 | 355.52%|  50.09%
 time | node  | left  |LP iter|LP it/n|mem/heur|mdpt |vars |cons |rows |cuts |sepa|confs|strbr|  dualbound   | primalbound  |  gap   | compl. 
  116s|  3400 |   907 |  1138k| 329.8 |   203M |  34 | 852 |1180 |2756 | 300k|  6 | 837 | 391 | 5.209392e-01 | 2.277751e+00 | 337.24%|  50.29%
  119s|  3500 |   911 |  1162k| 327.2 |   205M |  34 | 852 |1183 |2555 | 306k|  8 | 858 | 404 | 5.299001e-01 | 2.277751e+00 | 329.85%|  51.02%
  121s|  3600 |   911 |  1184k| 324.3 |   207M |  34 | 852 |1183 |2760 | 312k|  0 | 873 | 408 | 5.365721e-01 | 2.277751e+00 | 324.50%|  51.91%
  123s|  3700 |   905 |  1200k| 320.0 |   213M |  34 | 852 |1183 |2737 | 318k|  8 | 887 | 409 | 5.521901e-01 | 2.277751e+00 | 312.49%|  52.84%
  126s|  3800 |   915 |  1225k| 318.0 |   214M |  34 | 852 |1183 |2736 | 324k|  0 | 901 | 411 | 5.562922e-01 | 2.277751e+00 | 309.45%|  53.61%
  129s|  3900 |   927 |  1249k| 316.1 |   217M |  34 | 852 |1183 |2801 | 331k|  0 | 932 | 429 | 5.621059e-01 | 2.277751e+00 | 305.22%|  54.03%
  131s|  4000 |   929 |  1271k| 313.7 |   219M |  34 | 852 |1183 |2433 | 337k|  0 | 949 | 438 | 6.273951e-01 | 2.277751e+00 | 263.05%|  54.52%
* 133s|  4071 |   879 |  1286k| 311.8 |    LP  |  34 | 852 |1183 |2945 | 341k| 11 | 966 | 443 | 6.671202e-01 | 2.228260e+00 | 234.01%|  55.27%
  134s|  4100 |   878 |  1291k| 310.8 |   220M |  34 | 852 |1183 |2681 | 343k|  7 | 974 | 445 | 6.928787e-01 | 2.228260e+00 | 221.59%|  55.54%
  136s|  4200 |   874 |  1307k| 307.3 |   221M |  34 | 852 |1183 |2640 | 347k|  0 | 991 | 448 | 7.180743e-01 | 2.228260e+00 | 210.31%|  55.99%
  139s|  4300 |   896 |  1332k| 306.0 |   225M |  34 | 852 |1186 |2601 | 354k|  0 |1020 | 467 | 7.275362e-01 | 2.228260e+00 | 206.27%|  56.52%
  141s|  4400 |   888 |  1355k| 304.2 |   227M |  34 | 852 |1186 |2786 | 360k|  3 |1050 | 478 | 7.689775e-01 | 2.228260e+00 | 189.77%|  57.54%
  144s|  4500 |   884 |  1375k| 302.0 |   229M |  34 | 852 |1186 |2693 | 365k|  0 |1068 | 490 | 8.140513e-01 | 2.228260e+00 | 173.72%|  58.31%
  146s|  4600 |   876 |  1397k| 300.2 |   230M |  34 | 852 |1186 |3066 | 371k|  0 |1093 | 499 | 8.315258e-01 | 2.228260e+00 | 167.97%|  59.33%
  148s|  4700 |   862 |  1415k| 297.5 |   230M |  34 | 852 |1186 |2584 | 377k|  0 |1124 | 511 | 8.315258e-01 | 2.228260e+00 | 167.97%|  59.89%
 time | node  | left  |LP iter|LP it/n|mem/heur|mdpt |vars |cons |rows |cuts |sepa|confs|strbr|  dualbound   | primalbound  |  gap   | compl. 
  150s|  4800 |   862 |  1430k| 294.6 |   230M |  34 | 852 |1186 |2610 | 382k|  4 |1139 | 520 | 8.666123e-01 | 2.228260e+00 | 157.12%|  60.65%
  152s|  4900 |   848 |  1447k| 291.9 |   231M |  34 | 852 |1186 |2660 | 387k|  5 |1163 | 531 | 8.963961e-01 | 2.228260e+00 | 148.58%|  61.37%
  154s|  5000 |   854 |  1463k| 289.4 |   231M |  34 | 852 |1186 |2934 | 391k|  6 |1181 | 540 | 9.027112e-01 | 2.228260e+00 | 146.84%|  61.65%
  156s|  5100 |   852 |  1482k| 287.3 |   231M |  34 | 852 |1186 |2545 | 396k|  5 |1194 | 544 | 9.273694e-01 | 2.228260e+00 | 140.28%|  62.63%
  158s|  5200 |   848 |  1502k| 285.7 |   232M |  34 | 852 |1186 |2659 | 403k|  0 |1210 | 548 | 9.452616e-01 | 2.228260e+00 | 135.73%|  63.17%
  160s|  5300 |   840 |  1518k| 283.4 |   233M |  34 | 852 |1186 |3117 | 407k|  6 |1223 | 552 | 9.687743e-01 | 2.228260e+00 | 130.01%|  63.91%
  162s|  5400 |   834 |  1538k| 281.7 |   233M |  34 | 852 |1187 |2702 | 413k|  0 |1239 | 553 | 1.002629e+00 | 2.228260e+00 | 122.24%|  64.94%
  164s|  5500 |   834 |  1557k| 280.1 |   234M |  34 | 852 |1188 |2637 | 418k|  1 |1261 | 560 | 1.005223e+00 | 2.228260e+00 | 121.67%|  65.67%
  166s|  5600 |   828 |  1577k| 278.7 |   234M |  34 | 852 |1188 |2927 | 424k|  6 |1286 | 579 | 1.016438e+00 | 2.228260e+00 | 119.22%|  66.48%
  168s|  5700 |   816 |  1593k| 276.6 |   235M |  34 | 852 |1188 |2629 | 429k|  5 |1303 | 588 | 1.033692e+00 | 2.228260e+00 | 115.56%|  67.11%
  170s|  5800 |   808 |  1610k| 274.7 |   235M |  34 | 852 |1188 |2492 | 433k|  6 |1334 | 602 | 1.039010e+00 | 2.228260e+00 | 114.46%|  67.52%
  172s|  5900 |   802 |  1628k| 273.2 |   235M |  34 | 852 |1188 |2672 | 439k|  6 |1348 | 608 | 1.088608e+00 | 2.228260e+00 | 104.69%|  68.35%
  174s|  6000 |   794 |  1645k| 271.5 |   251M |  34 | 852 |1189 |2655 | 444k|  3 |1374 | 619 | 1.095964e+00 | 2.228260e+00 | 103.32%|  68.85%
  176s|  6100 |   790 |  1663k| 269.9 |   251M |  34 | 852 |1189 |2718 | 449k|  6 |1390 | 632 | 1.095970e+00 | 2.228260e+00 | 103.31%|  69.16%
  178s|  6200 |   784 |  1682k| 268.6 |   252M |  34 | 852 |1189 |2764 | 455k|  6 |1410 | 643 | 1.095974e+00 | 2.228260e+00 | 103.31%|  69.65%
 time | node  | left  |LP iter|LP it/n|mem/heur|mdpt |vars |cons |rows |cuts |sepa|confs|strbr|  dualbound   | primalbound  |  gap   | compl. 
  181s|  6300 |   772 |  1705k| 268.0 |   253M |  34 | 852 |1189 |2504 | 461k|  0 |1447 | 660 | 1.106489e+00 | 2.228260e+00 | 101.38%|  70.27%
  183s|  6400 |   768 |  1725k| 266.9 |   253M |  34 | 852 |1189 |2591 | 466k|  0 |1471 | 671 | 1.137179e+00 | 2.228260e+00 |  95.95%|  70.80%
  185s|  6500 |   750 |  1746k| 266.0 |   254M |  34 | 852 |1189 |2423 | 472k|  0 |1500 | 682 | 1.146356e+00 | 2.228260e+00 |  94.38%|  71.60%
  188s|  6600 |   740 |  1764k| 264.8 |   256M |  34 | 852 |1189 |2595 | 477k|  8 |1529 | 700 | 1.162857e+00 | 2.228260e+00 |  91.62%|  72.18%
  190s|  6700 |   734 |  1782k| 263.5 |   256M |  34 | 852 |1189 |2678 | 482k|  5 |1545 | 705 | 1.174774e+00 | 2.228260e+00 |  89.68%|  72.46%
  191s|  6800 |   714 |  1796k| 261.6 |   256M |  34 | 852 |1189 |2550 | 487k|  0 |1557 | 708 | 1.195220e+00 | 2.228260e+00 |  86.43%|  73.10%
  193s|  6900 |   700 |  1810k| 260.0 |   256M |  34 | 852 |1189 |2559 | 491k|  0 |1577 | 722 | 1.202964e+00 | 2.228260e+00 |  85.23%|  73.50%
  195s|  7000 |   684 |  1823k| 258.1 |   257M |  34 | 852 |1189 |2692 | 494k|  6 |1591 | 726 | 1.202964e+00 | 2.228260e+00 |  85.23%|  73.82%
  196s|  7100 |   668 |  1834k| 256.0 |   257M |  34 | 852 |1189 |2441 | 498k|  0 |1601 | 733 | 1.202964e+00 | 2.228260e+00 |  85.23%|  74.14%
  198s|  7200 |   654 |  1848k| 254.4 |   257M |  34 | 852 |1189 |2683 | 502k|  1 |1613 | 734 | 1.214115e+00 | 2.228260e+00 |  83.53%|  74.80%
  200s|  7300 |   642 |  1864k| 253.1 |   257M |  34 | 852 |1189 |2507 | 506k|  6 |1634 | 741 | 1.217510e+00 | 2.228260e+00 |  83.02%|  75.17%
  202s|  7400 |   622 |  1879k| 251.7 |   257M |  34 | 852 |1189 |2700 | 510k|  2 |1650 | 746 | 1.242108e+00 | 2.228260e+00 |  79.39%|  75.82%
  204s|  7500 |   606 |  1896k| 250.6 |   257M |  34 | 852 |1189 |2549 | 515k|  0 |1666 | 748 | 1.258010e+00 | 2.228260e+00 |  77.13%|  76.47%
  206s|  7600 |   596 |  1914k| 249.7 |   257M |  34 | 852 |1189 |2447 | 520k|  4 |1685 | 759 | 1.270025e+00 | 2.228260e+00 |  75.45%|  76.95%
  207s|  7700 |   576 |  1930k| 248.6 |   257M |  34 | 852 |1189 |2709 | 525k|  0 |1695 | 759 | 1.300959e+00 | 2.228260e+00 |  71.28%|  77.67%
 time | node  | left  |LP iter|LP it/n|mem/heur|mdpt |vars |cons |rows |cuts |sepa|confs|strbr|  dualbound   | primalbound  |  gap   | compl. 
  210s|  7800 |   562 |  1950k| 247.8 |   258M |  34 | 852 |1189 |3540 | 530k|  3 |1707 | 760 | 1.317425e+00 | 2.228260e+00 |  69.14%|  78.37%
  211s|  7900 |   538 |  1962k| 246.2 |   258M |  34 | 852 |1189 |2580 | 534k|  4 |1717 | 761 | 1.321817e+00 | 2.228260e+00 |  68.58%|  78.96%
  213s|  8000 |   504 |  1977k| 245.1 |   259M |  34 | 852 |1189 |2461 | 538k|  0 |1745 | 773 | 1.347905e+00 | 2.228260e+00 |  65.31%|  80.12%
  215s|  8100 |   474 |  1990k| 243.6 |   260M |  34 | 852 |1189 |2603 | 541k|  6 |1758 | 779 | 1.368671e+00 | 2.228260e+00 |  62.80%|  80.81%
  217s|  8200 |   456 |  2007k| 242.8 |   260M |  34 | 852 |1189 |2830 | 546k|  0 |1778 | 786 | 1.398121e+00 | 2.228260e+00 |  59.38%|  81.61%
  219s|  8300 |   436 |  2025k| 242.0 |   261M |  34 | 852 |1189 |2700 | 550k|  5 |1797 | 795 | 1.439724e+00 | 2.228260e+00 |  54.77%|  82.80%
  221s|  8400 |   424 |  2044k| 241.3 |   261M |  34 | 852 |1192 |2645 | 555k|  0 |1819 | 806 | 1.439810e+00 | 2.228260e+00 |  54.76%|  83.80%
  224s|  8500 |   404 |  2062k| 240.7 |   263M |  34 | 852 |1192 |2604 | 560k|  0 |1824 | 806 | 1.439829e+00 | 2.228260e+00 |  54.76%|  84.45%
  226s|  8600 |   392 |  2085k| 240.5 |   264M |  34 | 852 |1195 |2601 | 565k|  1 |1842 | 811 | 1.439850e+00 | 2.228260e+00 |  54.76%|  85.07%
  229s|  8700 |   376 |  2107k| 240.3 |   265M |  34 | 852 |1198 |2492 | 570k|  0 |1864 | 818 | 1.446332e+00 | 2.228260e+00 |  54.06%|  85.92%
  230s|  8800 |   358 |  2123k| 239.3 |   265M |  34 | 852 |1198 |2830 | 574k|  7 |1874 | 818 | 1.446332e+00 | 2.228260e+00 |  54.06%|  86.38%
  232s|  8900 |   326 |  2137k| 238.3 |   265M |  34 | 852 |1198 |2535 | 578k|  1 |1895 | 825 | 1.458572e+00 | 2.228260e+00 |  52.77%|  87.16%
  235s|  9000 |   306 |  2158k| 237.9 |   265M |  34 | 852 |1200 |3054 | 582k|  6 |1918 | 827 | 1.505176e+00 | 2.228260e+00 |  48.04%|  87.75%
  237s|  9100 |   264 |  2171k| 236.8 |   265M |  34 | 852 |1200 |3446 | 585k|  0 |1934 | 830 | 1.540346e+00 | 2.228260e+00 |  44.66%|  88.65%
  239s|  9200 |   242 |  2187k| 235.9 |   266M |  34 | 852 |1200 |4901 | 589k|  0 |1955 | 836 | 1.550788e+00 | 2.228260e+00 |  43.69%|  89.28%
 time | node  | left  |LP iter|LP it/n|mem/heur|mdpt |vars |cons |rows |cuts |sepa|confs|strbr|  dualbound   | primalbound  |  gap   | compl. 
  241s|  9300 |   216 |  2205k| 235.3 |   270M |  34 | 852 |1200 |2720 | 593k|  5 |1968 | 839 | 1.580959e+00 | 2.228260e+00 |  40.94%|  90.13%
  244s|  9400 |   182 |  2221k| 234.5 |   271M |  34 | 852 |1200 |2451 | 596k|  2 |1976 | 840 | 1.602362e+00 | 2.228260e+00 |  39.06%|  91.60%
  247s|  9500 |   152 |  2243k| 234.3 |   275M |  34 | 852 |1200 |2468 | 600k|  2 |1989 | 840 | 1.629882e+00 | 2.228260e+00 |  36.71%|  92.72%
  249s|  9600 |   108 |  2262k| 233.9 |   277M |  34 | 852 |1202 |2172 | 604k|  0 |2000 | 841 | 1.718930e+00 | 2.228260e+00 |  29.63%|  94.27%
  251s|  9700 |    58 |  2279k| 233.2 |   278M |  34 | 852 |1207 |3074 | 607k|  0 |2019 | 842 | 1.792955e+00 | 2.228260e+00 |  24.28%|  96.89%
  254s|  9800 |    18 |  2298k| 232.8 |   286M |  34 | 852 |1212 |2344 | 611k|  0 |2035 | 843 | 1.932910e+00 | 2.228260e+00 |  15.28%|  98.97%

SCIP Status        : problem is solved [optimal solution found]
Solving Time (sec) : 254.60
Solving Nodes      : 9835
Primal Bound       : +2.22826001384375e+00 (17 solutions)
Dual Bound         : +2.22826001384375e+00
Gap                : 0.00 %


--- Reading solution for model GAMS_MODEL
***
*** Solver did not provide marginals for model GAMS_MODEL
***
--- Executing after solve: elapsed 0:04:14.693
--- model.gms(3660) 4 Mb
--- model.gms(5392) 6 Mb
--- Putfile results /local/scratch/a/sgusev/repos/k_means/data/gams_scip_gdp.hull_exact_conic_no_cholesky/no_mode/2026-02-16_07-43-57/original/results.dat
--- Putfile statresults /local/scratch/a/sgusev/repos/k_means/data/gams_scip_gdp.hull_exact_conic_no_cholesky/no_mode/2026-02-16_07-43-57/original/resultsstat.dat
*** Status: Normal completion
--- Job model.gms Stop 02/16/26 07:48:13 elapsed 0:04:14.696
Original problem solved. Time taken: 255.31538486480713 seconds
Original objective value: 2.228260013843751
